
Gurobi 8.0.0 (linux64, Python) logging started Tue Jun 19 11:54:52 2018

Academic license - for non-commercial use only

Gurobi 8.0.0 (linux64, Python) logging started Tue Jun 19 11:55:08 2018

Academic license - for non-commercial use only
Optimize a model with 14 rows, 40 columns and 80 nonzeros
Coefficient statistics:
  Matrix range     [1e+00, 1e+00]
  Objective range  [1e-02, 3e+00]
  Bounds range     [0e+00, 0e+00]
  RHS range        [1e-01, 9e-01]
Presolve removed 14 rows and 40 columns
Presolve time: 0.03s
Presolve: All rows and columns removed
Iteration    Objective       Primal Inf.    Dual Inf.      Time
       0    4.7783464e-01   0.000000e+00   0.000000e+00      0s

Solved in 0 iterations and 0.04 seconds
Optimal objective  4.778346397e-01

Gurobi 8.0.0 (linux64, Python) logging started Tue Jun 19 11:56:24 2018

Academic license - for non-commercial use only
Optimize a model with 14 rows, 40 columns and 80 nonzeros
Coefficient statistics:
  Matrix range     [1e+00, 1e+00]
  Objective range  [1e-02, 3e+00]
  Bounds range     [0e+00, 0e+00]
  RHS range        [1e-01, 9e-01]
Presolve removed 14 rows and 40 columns
Presolve time: 0.00s
Presolve: All rows and columns removed
Iteration    Objective       Primal Inf.    Dual Inf.      Time
       0    4.7783464e-01   0.000000e+00   0.000000e+00      0s

Solved in 0 iterations and 0.00 seconds
Optimal objective  4.778346397e-01

Gurobi 8.0.0 (linux64, Python) logging started Tue Jun 19 11:56:40 2018

Academic license - for non-commercial use only
Optimize a model with 14 rows, 40 columns and 80 nonzeros
Coefficient statistics:
  Matrix range     [1e+00, 1e+00]
  Objective range  [1e-02, 3e+00]
  Bounds range     [0e+00, 0e+00]
  RHS range        [1e-01, 9e-01]
Presolve removed 14 rows and 40 columns
Presolve time: 0.00s
Presolve: All rows and columns removed
Iteration    Objective       Primal Inf.    Dual Inf.      Time
       0    4.7783464e-01   0.000000e+00   0.000000e+00      0s

Solved in 0 iterations and 0.00 seconds
Optimal objective  4.778346397e-01

Gurobi 8.0.0 (linux64, Python) logging started Tue Jun 19 11:57:29 2018

Academic license - for non-commercial use only
Optimize a model with 14 rows, 40 columns and 80 nonzeros
Coefficient statistics:
  Matrix range     [1e+00, 1e+00]
  Objective range  [1e-02, 3e+00]
  Bounds range     [0e+00, 0e+00]
  RHS range        [1e-01, 9e-01]
Presolve removed 14 rows and 40 columns
Presolve time: 0.00s
Presolve: All rows and columns removed
Iteration    Objective       Primal Inf.    Dual Inf.      Time
       0    4.7783464e-01   0.000000e+00   0.000000e+00      0s

Solved in 0 iterations and 0.00 seconds
Optimal objective  4.778346397e-01

Gurobi 8.0.0 (linux64, Python) logging started Tue Jun 19 11:58:18 2018

Academic license - for non-commercial use only
Optimize a model with 14 rows, 40 columns and 80 nonzeros
Coefficient statistics:
  Matrix range     [1e+00, 1e+00]
  Objective range  [1e-02, 3e+00]
  Bounds range     [0e+00, 0e+00]
  RHS range        [1e-01, 9e-01]
Presolve removed 14 rows and 40 columns
Presolve time: 0.00s
Presolve: All rows and columns removed
Iteration    Objective       Primal Inf.    Dual Inf.      Time
       0    4.7783464e-01   0.000000e+00   0.000000e+00      0s

Solved in 0 iterations and 0.00 seconds
Optimal objective  4.778346397e-01

Gurobi 8.0.0 (linux64, Python) logging started Tue Jun 19 12:03:46 2018

Academic license - for non-commercial use only
Optimize a model with 14 rows, 40 columns and 80 nonzeros
Coefficient statistics:
  Matrix range     [1e+00, 1e+00]
  Objective range  [1e-02, 3e+00]
  Bounds range     [0e+00, 0e+00]
  RHS range        [1e-01, 9e-01]
Presolve removed 14 rows and 40 columns
Presolve time: 0.03s
Presolve: All rows and columns removed
Iteration    Objective       Primal Inf.    Dual Inf.      Time
       0    4.7783464e-01   0.000000e+00   0.000000e+00      0s

Solved in 0 iterations and 0.04 seconds
Optimal objective  4.778346397e-01

Gurobi 8.0.0 (linux64, Python) logging started Tue Jun 19 12:04:28 2018

Academic license - for non-commercial use only
Optimize a model with 14 rows, 40 columns and 80 nonzeros
Coefficient statistics:
  Matrix range     [1e+00, 1e+00]
  Objective range  [1e-02, 3e+00]
  Bounds range     [0e+00, 0e+00]
  RHS range        [1e-01, 9e-01]
Presolve removed 14 rows and 40 columns
Presolve time: 0.00s
Presolve: All rows and columns removed
Iteration    Objective       Primal Inf.    Dual Inf.      Time
       0    4.7783464e-01   0.000000e+00   0.000000e+00      0s

Solved in 0 iterations and 0.00 seconds
Optimal objective  4.778346397e-01

Gurobi 8.0.0 (linux64, Python) logging started Tue Jun 19 16:07:50 2018

Academic license - for non-commercial use only
Optimize a model with 14 rows, 40 columns and 80 nonzeros
Coefficient statistics:
  Matrix range     [1e+00, 1e+00]
  Objective range  [1e-02, 3e+00]
  Bounds range     [0e+00, 0e+00]
  RHS range        [1e-01, 9e-01]
Presolve removed 14 rows and 40 columns
Presolve time: 0.03s
Presolve: All rows and columns removed
Iteration    Objective       Primal Inf.    Dual Inf.      Time
       0    4.7783464e-01   0.000000e+00   0.000000e+00      0s

Solved in 0 iterations and 0.04 seconds
Optimal objective  4.778346397e-01
